p cnf 70 1200
1 2 3 4 5 6 7 8 9 10 11 12 13 14 0
15 16 17 18 19 20 21 22 23 24 25 26 27 28 0
29 30 31 32 33 34 35 36 37 38 39 40 41 42 0
43 44 45 46 47 48 49 50 51 52 53 54 55 56 0
57 58 59 60 61 62 63 64 65 66 67 68 69 70 0
-1 -3 0
-1 -17 0
-1 -31 0
-1 -45 0
-1 -59 0
-15 -3 0
-15 -17 0
-15 -31 0
-15 -45 0
-15 -59 0
-29 -3 0
-29 -17 0
-29 -31 0
-29 -45 0
-29 -59 0
-43 -3 0
-43 -17 0
-43 -31 0
-43 -45 0
-43 -59 0
-57 -3 0
-57 -17 0
-57 -31 0
-57 -45 0
-57 -59 0
-1 -4 0
-1 -18 0
-1 -32 0
-1 -46 0
-1 -60 0
-15 -4 0
-15 -18 0
-15 -32 0
-15 -46 0
-15 -60 0
-29 -4 0
-29 -18 0
-29 -32 0
-29 -46 0
-29 -60 0
-43 -4 0
-43 -18 0
-43 -32 0
-43 -46 0
-43 -60 0
-57 -4 0
-57 -18 0
-57 -32 0
-57 -46 0
-57 -60 0
-1 -5 0
-1 -19 0
-1 -33 0
-1 -47 0
-1 -61 0
-15 -5 0
-15 -19 0
-15 -33 0
-15 -47 0
-15 -61 0
-29 -5 0
-29 -19 0
-29 -33 0
-29 -47 0
-29 -61 0
-43 -5 0
-43 -19 0
-43 -33 0
-43 -47 0
-43 -61 0
-57 -5 0
-57 -19 0
-57 -33 0
-57 -47 0
-57 -61 0
-1 -8 0
-1 -22 0
-1 -36 0
-1 -50 0
-1 -64 0
-15 -8 0
-15 -22 0
-15 -36 0
-15 -50 0
-15 -64 0
-29 -8 0
-29 -22 0
-29 -36 0
-29 -50 0
-29 -64 0
-43 -8 0
-43 -22 0
-43 -36 0
-43 -50 0
-43 -64 0
-57 -8 0
-57 -22 0
-57 -36 0
-57 -50 0
-57 -64 0
-1 -10 0
-1 -24 0
-1 -38 0
-1 -52 0
-1 -66 0
-15 -10 0
-15 -24 0
-15 -38 0
-15 -52 0
-15 -66 0
-29 -10 0
-29 -24 0
-29 -38 0
-29 -52 0
-29 -66 0
-43 -10 0
-43 -24 0
-43 -38 0
-43 -52 0
-43 -66 0
-57 -10 0
-57 -24 0
-57 -38 0
-57 -52 0
-57 -66 0
-2 -5 0
-2 -19 0
-2 -33 0
-2 -47 0
-2 -61 0
-16 -5 0
-16 -19 0
-16 -33 0
-16 -47 0
-16 -61 0
-30 -5 0
-30 -19 0
-30 -33 0
-30 -47 0
-30 -61 0
-44 -5 0
-44 -19 0
-44 -33 0
-44 -47 0
-44 -61 0
-58 -5 0
-58 -19 0
-58 -33 0
-58 -47 0
-58 -61 0
-2 -11 0
-2 -25 0
-2 -39 0
-2 -53 0
-2 -67 0
-16 -11 0
-16 -25 0
-16 -39 0
-16 -53 0
-16 -67 0
-30 -11 0
-30 -25 0
-30 -39 0
-30 -53 0
-30 -67 0
-44 -11 0
-44 -25 0
-44 -39 0
-44 -53 0
-44 -67 0
-58 -11 0
-58 -25 0
-58 -39 0
-58 -53 0
-58 -67 0
-2 -13 0
-2 -27 0
-2 -41 0
-2 -55 0
-2 -69 0
-16 -13 0
-16 -27 0
-16 -41 0
-16 -55 0
-16 -69 0
-30 -13 0
-30 -27 0
-30 -41 0
-30 -55 0
-30 -69 0
-44 -13 0
-44 -27 0
-44 -41 0
-44 -55 0
-44 -69 0
-58 -13 0
-58 -27 0
-58 -41 0
-58 -55 0
-58 -69 0
-3 -5 0
-3 -19 0
-3 -33 0
-3 -47 0
-3 -61 0
-17 -5 0
-17 -19 0
-17 -33 0
-17 -47 0
-17 -61 0
-31 -5 0
-31 -19 0
-31 -33 0
-31 -47 0
-31 -61 0
-45 -5 0
-45 -19 0
-45 -33 0
-45 -47 0
-45 -61 0
-59 -5 0
-59 -19 0
-59 -33 0
-59 -47 0
-59 -61 0
-3 -8 0
-3 -22 0
-3 -36 0
-3 -50 0
-3 -64 0
-17 -8 0
-17 -22 0
-17 -36 0
-17 -50 0
-17 -64 0
-31 -8 0
-31 -22 0
-31 -36 0
-31 -50 0
-31 -64 0
-45 -8 0
-45 -22 0
-45 -36 0
-45 -50 0
-45 -64 0
-59 -8 0
-59 -22 0
-59 -36 0
-59 -50 0
-59 -64 0
-3 -12 0
-3 -26 0
-3 -40 0
-3 -54 0
-3 -68 0
-17 -12 0
-17 -26 0
-17 -40 0
-17 -54 0
-17 -68 0
-31 -12 0
-31 -26 0
-31 -40 0
-31 -54 0
-31 -68 0
-45 -12 0
-45 -26 0
-45 -40 0
-45 -54 0
-45 -68 0
-59 -12 0
-59 -26 0
-59 -40 0
-59 -54 0
-59 -68 0
-4 -6 0
-4 -20 0
-4 -34 0
-4 -48 0
-4 -62 0
-18 -6 0
-18 -20 0
-18 -34 0
-18 -48 0
-18 -62 0
-32 -6 0
-32 -20 0
-32 -34 0
-32 -48 0
-32 -62 0
-46 -6 0
-46 -20 0
-46 -34 0
-46 -48 0
-46 -62 0
-60 -6 0
-60 -20 0
-60 -34 0
-60 -48 0
-60 -62 0
-4 -10 0
-4 -24 0
-4 -38 0
-4 -52 0
-4 -66 0
-18 -10 0
-18 -24 0
-18 -38 0
-18 -52 0
-18 -66 0
-32 -10 0
-32 -24 0
-32 -38 0
-32 -52 0
-32 -66 0
-46 -10 0
-46 -24 0
-46 -38 0
-46 -52 0
-46 -66 0
-60 -10 0
-60 -24 0
-60 -38 0
-60 -52 0
-60 -66 0
-4 -12 0
-4 -26 0
-4 -40 0
-4 -54 0
-4 -68 0
-18 -12 0
-18 -26 0
-18 -40 0
-18 -54 0
-18 -68 0
-32 -12 0
-32 -26 0
-32 -40 0
-32 -54 0
-32 -68 0
-46 -12 0
-46 -26 0
-46 -40 0
-46 -54 0
-46 -68 0
-60 -12 0
-60 -26 0
-60 -40 0
-60 -54 0
-60 -68 0
-4 -13 0
-4 -27 0
-4 -41 0
-4 -55 0
-4 -69 0
-18 -13 0
-18 -27 0
-18 -41 0
-18 -55 0
-18 -69 0
-32 -13 0
-32 -27 0
-32 -41 0
-32 -55 0
-32 -69 0
-46 -13 0
-46 -27 0
-46 -41 0
-46 -55 0
-46 -69 0
-60 -13 0
-60 -27 0
-60 -41 0
-60 -55 0
-60 -69 0
-5 -11 0
-5 -25 0
-5 -39 0
-5 -53 0
-5 -67 0
-19 -11 0
-19 -25 0
-19 -39 0
-19 -53 0
-19 -67 0
-33 -11 0
-33 -25 0
-33 -39 0
-33 -53 0
-33 -67 0
-47 -11 0
-47 -25 0
-47 -39 0
-47 -53 0
-47 -67 0
-61 -11 0
-61 -25 0
-61 -39 0
-61 -53 0
-61 -67 0
-6 -9 0
-6 -23 0
-6 -37 0
-6 -51 0
-6 -65 0
-20 -9 0
-20 -23 0
-20 -37 0
-20 -51 0
-20 -65 0
-34 -9 0
-34 -23 0
-34 -37 0
-34 -51 0
-34 -65 0
-48 -9 0
-48 -23 0
-48 -37 0
-48 -51 0
-48 -65 0
-62 -9 0
-62 -23 0
-62 -37 0
-62 -51 0
-62 -65 0
-6 -11 0
-6 -25 0
-6 -39 0
-6 -53 0
-6 -67 0
-20 -11 0
-20 -25 0
-20 -39 0
-20 -53 0
-20 -67 0
-34 -11 0
-34 -25 0
-34 -39 0
-34 -53 0
-34 -67 0
-48 -11 0
-48 -25 0
-48 -39 0
-48 -53 0
-48 -67 0
-62 -11 0
-62 -25 0
-62 -39 0
-62 -53 0
-62 -67 0
-6 -12 0
-6 -26 0
-6 -40 0
-6 -54 0
-6 -68 0
-20 -12 0
-20 -26 0
-20 -40 0
-20 -54 0
-20 -68 0
-34 -12 0
-34 -26 0
-34 -40 0
-34 -54 0
-34 -68 0
-48 -12 0
-48 -26 0
-48 -40 0
-48 -54 0
-48 -68 0
-62 -12 0
-62 -26 0
-62 -40 0
-62 -54 0
-62 -68 0
-6 -13 0
-6 -27 0
-6 -41 0
-6 -55 0
-6 -69 0
-20 -13 0
-20 -27 0
-20 -41 0
-20 -55 0
-20 -69 0
-34 -13 0
-34 -27 0
-34 -41 0
-34 -55 0
-34 -69 0
-48 -13 0
-48 -27 0
-48 -41 0
-48 -55 0
-48 -69 0
-62 -13 0
-62 -27 0
-62 -41 0
-62 -55 0
-62 -69 0
-7 -9 0
-7 -23 0
-7 -37 0
-7 -51 0
-7 -65 0
-21 -9 0
-21 -23 0
-21 -37 0
-21 -51 0
-21 -65 0
-35 -9 0
-35 -23 0
-35 -37 0
-35 -51 0
-35 -65 0
-49 -9 0
-49 -23 0
-49 -37 0
-49 -51 0
-49 -65 0
-63 -9 0
-63 -23 0
-63 -37 0
-63 -51 0
-63 -65 0
-7 -11 0
-7 -25 0
-7 -39 0
-7 -53 0
-7 -67 0
-21 -11 0
-21 -25 0
-21 -39 0
-21 -53 0
-21 -67 0
-35 -11 0
-35 -25 0
-35 -39 0
-35 -53 0
-35 -67 0
-49 -11 0
-49 -25 0
-49 -39 0
-49 -53 0
-49 -67 0
-63 -11 0
-63 -25 0
-63 -39 0
-63 -53 0
-63 -67 0
-7 -13 0
-7 -27 0
-7 -41 0
-7 -55 0
-7 -69 0
-21 -13 0
-21 -27 0
-21 -41 0
-21 -55 0
-21 -69 0
-35 -13 0
-35 -27 0
-35 -41 0
-35 -55 0
-35 -69 0
-49 -13 0
-49 -27 0
-49 -41 0
-49 -55 0
-49 -69 0
-63 -13 0
-63 -27 0
-63 -41 0
-63 -55 0
-63 -69 0
-8 -9 0
-8 -23 0
-8 -37 0
-8 -51 0
-8 -65 0
-22 -9 0
-22 -23 0
-22 -37 0
-22 -51 0
-22 -65 0
-36 -9 0
-36 -23 0
-36 -37 0
-36 -51 0
-36 -65 0
-50 -9 0
-50 -23 0
-50 -37 0
-50 -51 0
-50 -65 0
-64 -9 0
-64 -23 0
-64 -37 0
-64 -51 0
-64 -65 0
-9 -12 0
-9 -26 0
-9 -40 0
-9 -54 0
-9 -68 0
-23 -12 0
-23 -26 0
-23 -40 0
-23 -54 0
-23 -68 0
-37 -12 0
-37 -26 0
-37 -40 0
-37 -54 0
-37 -68 0
-51 -12 0
-51 -26 0
-51 -40 0
-51 -54 0
-51 -68 0
-65 -12 0
-65 -26 0
-65 -40 0
-65 -54 0
-65 -68 0
-9 -14 0
-9 -28 0
-9 -42 0
-9 -56 0
-9 -70 0
-23 -14 0
-23 -28 0
-23 -42 0
-23 -56 0
-23 -70 0
-37 -14 0
-37 -28 0
-37 -42 0
-37 -56 0
-37 -70 0
-51 -14 0
-51 -28 0
-51 -42 0
-51 -56 0
-51 -70 0
-65 -14 0
-65 -28 0
-65 -42 0
-65 -56 0
-65 -70 0
-10 -13 0
-10 -27 0
-10 -41 0
-10 -55 0
-10 -69 0
-24 -13 0
-24 -27 0
-24 -41 0
-24 -55 0
-24 -69 0
-38 -13 0
-38 -27 0
-38 -41 0
-38 -55 0
-38 -69 0
-52 -13 0
-52 -27 0
-52 -41 0
-52 -55 0
-52 -69 0
-66 -13 0
-66 -27 0
-66 -41 0
-66 -55 0
-66 -69 0
-11 -13 0
-11 -27 0
-11 -41 0
-11 -55 0
-11 -69 0
-25 -13 0
-25 -27 0
-25 -41 0
-25 -55 0
-25 -69 0
-39 -13 0
-39 -27 0
-39 -41 0
-39 -55 0
-39 -69 0
-53 -13 0
-53 -27 0
-53 -41 0
-53 -55 0
-53 -69 0
-67 -13 0
-67 -27 0
-67 -41 0
-67 -55 0
-67 -69 0
-11 -14 0
-11 -28 0
-11 -42 0
-11 -56 0
-11 -70 0
-25 -14 0
-25 -28 0
-25 -42 0
-25 -56 0
-25 -70 0
-39 -14 0
-39 -28 0
-39 -42 0
-39 -56 0
-39 -70 0
-53 -14 0
-53 -28 0
-53 -42 0
-53 -56 0
-53 -70 0
-67 -14 0
-67 -28 0
-67 -42 0
-67 -56 0
-67 -70 0
-12 -13 0
-12 -27 0
-12 -41 0
-12 -55 0
-12 -69 0
-26 -13 0
-26 -27 0
-26 -41 0
-26 -55 0
-26 -69 0
-40 -13 0
-40 -27 0
-40 -41 0
-40 -55 0
-40 -69 0
-54 -13 0
-54 -27 0
-54 -41 0
-54 -55 0
-54 -69 0
-68 -13 0
-68 -27 0
-68 -41 0
-68 -55 0
-68 -69 0
-1 -2 0
-1 -6 0
-1 -7 0
-1 -9 0
-1 -11 0
-1 -12 0
-1 -13 0
-1 -14 0
-2 -3 0
-2 -4 0
-2 -6 0
-2 -7 0
-2 -8 0
-2 -9 0
-2 -10 0
-2 -12 0
-2 -14 0
-3 -4 0
-3 -6 0
-3 -7 0
-3 -9 0
-3 -10 0
-3 -11 0
-3 -13 0
-3 -14 0
-4 -5 0
-4 -7 0
-4 -8 0
-4 -9 0
-4 -11 0
-4 -14 0
-5 -6 0
-5 -7 0
-5 -8 0
-5 -9 0
-5 -10 0
-5 -12 0
-5 -13 0
-5 -14 0
-6 -7 0
-6 -8 0
-6 -10 0
-6 -14 0
-7 -8 0
-7 -10 0
-7 -12 0
-7 -14 0
-8 -10 0
-8 -11 0
-8 -12 0
-8 -13 0
-8 -14 0
-9 -10 0
-9 -11 0
-9 -13 0
-10 -11 0
-10 -12 0
-10 -14 0
-11 -12 0
-12 -14 0
-13 -14 0
-15 -16 0
-15 -20 0
-15 -21 0
-15 -23 0
-15 -25 0
-15 -26 0
-15 -27 0
-15 -28 0
-16 -17 0
-16 -18 0
-16 -20 0
-16 -21 0
-16 -22 0
-16 -23 0
-16 -24 0
-16 -26 0
-16 -28 0
-17 -18 0
-17 -20 0
-17 -21 0
-17 -23 0
-17 -24 0
-17 -25 0
-17 -27 0
-17 -28 0
-18 -19 0
-18 -21 0
-18 -22 0
-18 -23 0
-18 -25 0
-18 -28 0
-19 -20 0
-19 -21 0
-19 -22 0
-19 -23 0
-19 -24 0
-19 -26 0
-19 -27 0
-19 -28 0
-20 -21 0
-20 -22 0
-20 -24 0
-20 -28 0
-21 -22 0
-21 -24 0
-21 -26 0
-21 -28 0
-22 -24 0
-22 -25 0
-22 -26 0
-22 -27 0
-22 -28 0
-23 -24 0
-23 -25 0
-23 -27 0
-24 -25 0
-24 -26 0
-24 -28 0
-25 -26 0
-26 -28 0
-27 -28 0
-29 -30 0
-29 -34 0
-29 -35 0
-29 -37 0
-29 -39 0
-29 -40 0
-29 -41 0
-29 -42 0
-30 -31 0
-30 -32 0
-30 -34 0
-30 -35 0
-30 -36 0
-30 -37 0
-30 -38 0
-30 -40 0
-30 -42 0
-31 -32 0
-31 -34 0
-31 -35 0
-31 -37 0
-31 -38 0
-31 -39 0
-31 -41 0
-31 -42 0
-32 -33 0
-32 -35 0
-32 -36 0
-32 -37 0
-32 -39 0
-32 -42 0
-33 -34 0
-33 -35 0
-33 -36 0
-33 -37 0
-33 -38 0
-33 -40 0
-33 -41 0
-33 -42 0
-34 -35 0
-34 -36 0
-34 -38 0
-34 -42 0
-35 -36 0
-35 -38 0
-35 -40 0
-35 -42 0
-36 -38 0
-36 -39 0
-36 -40 0
-36 -41 0
-36 -42 0
-37 -38 0
-37 -39 0
-37 -41 0
-38 -39 0
-38 -40 0
-38 -42 0
-39 -40 0
-40 -42 0
-41 -42 0
-43 -44 0
-43 -48 0
-43 -49 0
-43 -51 0
-43 -53 0
-43 -54 0
-43 -55 0
-43 -56 0
-44 -45 0
-44 -46 0
-44 -48 0
-44 -49 0
-44 -50 0
-44 -51 0
-44 -52 0
-44 -54 0
-44 -56 0
-45 -46 0
-45 -48 0
-45 -49 0
-45 -51 0
-45 -52 0
-45 -53 0
-45 -55 0
-45 -56 0
-46 -47 0
-46 -49 0
-46 -50 0
-46 -51 0
-46 -53 0
-46 -56 0
-47 -48 0
-47 -49 0
-47 -50 0
-47 -51 0
-47 -52 0
-47 -54 0
-47 -55 0
-47 -56 0
-48 -49 0
-48 -50 0
-48 -52 0
-48 -56 0
-49 -50 0
-49 -52 0
-49 -54 0
-49 -56 0
-50 -52 0
-50 -53 0
-50 -54 0
-50 -55 0
-50 -56 0
-51 -52 0
-51 -53 0
-51 -55 0
-52 -53 0
-52 -54 0
-52 -56 0
-53 -54 0
-54 -56 0
-55 -56 0
-57 -58 0
-57 -62 0
-57 -63 0
-57 -65 0
-57 -67 0
-57 -68 0
-57 -69 0
-57 -70 0
-58 -59 0
-58 -60 0
-58 -62 0
-58 -63 0
-58 -64 0
-58 -65 0
-58 -66 0
-58 -68 0
-58 -70 0
-59 -60 0
-59 -62 0
-59 -63 0
-59 -65 0
-59 -66 0
-59 -67 0
-59 -69 0
-59 -70 0
-60 -61 0
-60 -63 0
-60 -64 0
-60 -65 0
-60 -67 0
-60 -70 0
-61 -62 0
-61 -63 0
-61 -64 0
-61 -65 0
-61 -66 0
-61 -68 0
-61 -69 0
-61 -70 0
-62 -63 0
-62 -64 0
-62 -66 0
-62 -70 0
-63 -64 0
-63 -66 0
-63 -68 0
-63 -70 0
-64 -66 0
-64 -67 0
-64 -68 0
-64 -69 0
-64 -70 0
-65 -66 0
-65 -67 0
-65 -69 0
-66 -67 0
-66 -68 0
-66 -70 0
-67 -68 0
-68 -70 0
-69 -70 0
-1 -15 0
-1 -29 0
-1 -43 0
-1 -57 0
-15 -29 0
-15 -43 0
-15 -57 0
-29 -43 0
-29 -57 0
-43 -57 0
-2 -16 0
-2 -30 0
-2 -44 0
-2 -58 0
-16 -30 0
-16 -44 0
-16 -58 0
-30 -44 0
-30 -58 0
-44 -58 0
-3 -17 0
-3 -31 0
-3 -45 0
-3 -59 0
-17 -31 0
-17 -45 0
-17 -59 0
-31 -45 0
-31 -59 0
-45 -59 0
-4 -18 0
-4 -32 0
-4 -46 0
-4 -60 0
-18 -32 0
-18 -46 0
-18 -60 0
-32 -46 0
-32 -60 0
-46 -60 0
-5 -19 0
-5 -33 0
-5 -47 0
-5 -61 0
-19 -33 0
-19 -47 0
-19 -61 0
-33 -47 0
-33 -61 0
-47 -61 0
-6 -20 0
-6 -34 0
-6 -48 0
-6 -62 0
-20 -34 0
-20 -48 0
-20 -62 0
-34 -48 0
-34 -62 0
-48 -62 0
-7 -21 0
-7 -35 0
-7 -49 0
-7 -63 0
-21 -35 0
-21 -49 0
-21 -63 0
-35 -49 0
-35 -63 0
-49 -63 0
-8 -22 0
-8 -36 0
-8 -50 0
-8 -64 0
-22 -36 0
-22 -50 0
-22 -64 0
-36 -50 0
-36 -64 0
-50 -64 0
-9 -23 0
-9 -37 0
-9 -51 0
-9 -65 0
-23 -37 0
-23 -51 0
-23 -65 0
-37 -51 0
-37 -65 0
-51 -65 0
-10 -24 0
-10 -38 0
-10 -52 0
-10 -66 0
-24 -38 0
-24 -52 0
-24 -66 0
-38 -52 0
-38 -66 0
-52 -66 0
-11 -25 0
-11 -39 0
-11 -53 0
-11 -67 0
-25 -39 0
-25 -53 0
-25 -67 0
-39 -53 0
-39 -67 0
-53 -67 0
-12 -26 0
-12 -40 0
-12 -54 0
-12 -68 0
-26 -40 0
-26 -54 0
-26 -68 0
-40 -54 0
-40 -68 0
-54 -68 0
-13 -27 0
-13 -41 0
-13 -55 0
-13 -69 0
-27 -41 0
-27 -55 0
-27 -69 0
-41 -55 0
-41 -69 0
-55 -69 0
-14 -28 0
-14 -42 0
-14 -56 0
-14 -70 0
-28 -42 0
-28 -56 0
-28 -70 0
-42 -56 0
-42 -70 0
-56 -70 0
